c This is an instance of the exact track of PACE 2020 Challenge, see https://pacechallenge.org/2020/ 
c TYPE: biology 
c ORIGIN: http://ginsim.org/models_repository 
c DESCRIPTION: This is a gene regulatory network where the nodes are genes or cell states and edges correspond to regulatory interactions between pairs of genes or states, for example, if one gene is upregulated and reaches a certain level of activation, then another gene is upregulated as well. This network accounts for cell fate decision network in the AGS gastric cancer cell line. Reference: Flobak, \AAsmund, Baudot, Ana\"is, Remy, E., Thommesen, L., Thieffry, D., Kuiper, M., & L\aegreid, Astrid (2015). Discovery of drug synergies in gastric cancer cells predicted by logical modeling. PLOS Computational Biology, 11(8), 1004426. http://dx.doi.org/10.1371/journal.pcbi.1004426 
p tdp 77 146
26 47
26 67
26 27
47 42
47 25
47 60
10 17
10 75
10 13
10 25
10 16
10 11
17 22
17 21
72 73
72 77
73 65
73 76
73 74
33 41
33 25
33 27
33 59
33 8
33 37
33 57
41 43
41 27
41 20
3 24
3 2
3 4
24 8
24 49
24 23
8 60
8 57
8 7
8 9
8 28
8 51
8 4
8 6
8 59
6 7
6 27
6 5
6 37
7 1
7 48
67 74
67 68
67 71
74 75
74 76
74 70
74 77
59 77
59 57
59 40
59 38
59 50
16 22
16 19
16 14
16 21
16 18
22 14
60 14
60 15
18 20
20 63
20 19
75 32
37 38
38 9
38 34
38 43
4 5
5 23
5 49
27 50
27 40
27 34
27 12
27 44
27 32
27 57
27 61
50 49
50 43
50 39
13 14
57 43
57 63
57 39
57 51
57 14
57 68
14 15
14 36
14 11
14 51
14 1
15 21
65 64
40 35
30 39
30 70
39 2
49 28
36 46
36 42
36 44
36 25
63 54
25 48
25 28
62 68
62 51
68 56
43 28
43 44
76 53
12 11
35 45
45 46
45 31
42 44
29 66
29 61
66 31
66 55
51 54
51 53
51 21
51 56
54 64
32 55
32 58
58 1
21 52
52 61
1 2
1 69
71 69
